Route #1: 4 28 7 39 50 5 18 
Route #2: 13 11 8 19 31 40 48 37 32 
Route #3: 14 2 12 27 6 16 
Route #4: 23 20 49 36 1 10 15 29 43 
Route #5: 30 46 42 24 51 47 25 41 34 52 
Route #6: 35 17 26 21 33 9 38 
Route #7: 45 44 3 22 53 
Cost 1179